4
4
20
1 1.3 1.55 1.75 2.1
26 26 10 23 13 22 10 38 30 7 29 46 39 32 40 29 33 40 23 41 43 30 8 8 15 49 37 20 45 16 24 35 26 43 40 17 23 26 13 13 39 9 14 34 33 15 24 8 8 46 17 32 10 25 28 42 10 23 19 32 34 30 29 38 15 13 7 21 7 28 6 26 34 23 16 8 37 39 13 19 